50
50 50
1 35 726
2 35 743
3 35 799
4 34 124
5 34 1000
6 33 144
7 33 223
8 31 166
9 30 744
10 28 195
11 27 769
12 27 97
13 27 406
14 27 308
15 25 391
16 24 313
17 24 498
18 23 443
19 23 944
20 23 214
21 22 292
22 22 933
23 22 193
24 22 578
25 21 118
26 21 720
27 21 998
28 20 274
29 20 427
30 19 763
31 18 772
32 18 287
33 18 970
34 18 688
35 18 992
36 17 189
37 16 938
38 16 753
39 16 706
40 16 740
41 15 788
42 15 241
43 15 916
44 13 809
45 13 265
46 13 728
47 12 447
48 11 679
49 10 538
50 10 628
